c CNF file corresponding to a (partial) station packing problem.
p cnf 6013 229
1 2 3 4 5 6 7 8 9 10 11 12 13 14 0
-1 -2 0
-1 -3 0
-1 -4 0
-1 -5 0
-1 -6 0
-1 -7 0
-1 -8 0
-1 -9 0
-1 -10 0
-1 -11 0
-1 -12 0
-1 -13 0
-1 -14 0
-2 -3 0
-2 -4 0
-2 -5 0
-2 -6 0
-2 -7 0
-2 -8 0
-2 -9 0
-2 -10 0
-2 -11 0
-2 -12 0
-2 -13 0
-2 -14 0
-3 -4 0
-3 -5 0
-3 -6 0
-3 -7 0
-3 -8 0
-3 -9 0
-3 -10 0
-3 -11 0
-3 -12 0
-3 -13 0
-3 -14 0
-4 -5 0
-4 -6 0
-4 -7 0
-4 -8 0
-4 -9 0
-4 -10 0
-4 -11 0
-4 -12 0
-4 -13 0
-4 -14 0
-5 -6 0
-5 -7 0
-5 -8 0
-5 -9 0
-5 -10 0
-5 -11 0
-5 -12 0
-5 -13 0
-5 -14 0
-6 -7 0
-6 -8 0
-6 -9 0
-6 -10 0
-6 -11 0
-6 -12 0
-6 -13 0
-6 -14 0
-7 -8 0
-7 -9 0
-7 -10 0
-7 -11 0
-7 -12 0
-7 -13 0
-7 -14 0
-8 -9 0
-8 -10 0
-8 -11 0
-8 -12 0
-8 -13 0
-8 -14 0
-9 -10 0
-9 -11 0
-9 -12 0
-9 -13 0
-9 -14 0
-10 -11 0
-10 -12 0
-10 -13 0
-10 -14 0
-11 -12 0
-11 -13 0
-11 -14 0
-12 -13 0
-12 -14 0
-13 -14 0
5997 5998 5999 6000 6001 6002 6003 6004 6005 6006 6007 6008 6009 6010 6011 6012 6013 0
-5997 -5998 0
-5997 -5999 0
-5997 -6000 0
-5997 -6001 0
-5997 -6002 0
-5997 -6003 0
-5997 -6004 0
-5997 -6005 0
-5997 -6006 0
-5997 -6007 0
-5997 -6008 0
-5997 -6009 0
-5997 -6010 0
-5997 -6011 0
-5997 -6012 0
-5997 -6013 0
-5998 -5999 0
-5998 -6000 0
-5998 -6001 0
-5998 -6002 0
-5998 -6003 0
-5998 -6004 0
-5998 -6005 0
-5998 -6006 0
-5998 -6007 0
-5998 -6008 0
-5998 -6009 0
-5998 -6010 0
-5998 -6011 0
-5998 -6012 0
-5998 -6013 0
-5999 -6000 0
-5999 -6001 0
-5999 -6002 0
-5999 -6003 0
-5999 -6004 0
-5999 -6005 0
-5999 -6006 0
-5999 -6007 0
-5999 -6008 0
-5999 -6009 0
-5999 -6010 0
-5999 -6011 0
-5999 -6012 0
-5999 -6013 0
-6000 -6001 0
-6000 -6002 0
-6000 -6003 0
-6000 -6004 0
-6000 -6005 0
-6000 -6006 0
-6000 -6007 0
-6000 -6008 0
-6000 -6009 0
-6000 -6010 0
-6000 -6011 0
-6000 -6012 0
-6000 -6013 0
-6001 -6002 0
-6001 -6003 0
-6001 -6004 0
-6001 -6005 0
-6001 -6006 0
-6001 -6007 0
-6001 -6008 0
-6001 -6009 0
-6001 -6010 0
-6001 -6011 0
-6001 -6012 0
-6001 -6013 0
-6002 -6003 0
-6002 -6004 0
-6002 -6005 0
-6002 -6006 0
-6002 -6007 0
-6002 -6008 0
-6002 -6009 0
-6002 -6010 0
-6002 -6011 0
-6002 -6012 0
-6002 -6013 0
-6003 -6004 0
-6003 -6005 0
-6003 -6006 0
-6003 -6007 0
-6003 -6008 0
-6003 -6009 0
-6003 -6010 0
-6003 -6011 0
-6003 -6012 0
-6003 -6013 0
-6004 -6005 0
-6004 -6006 0
-6004 -6007 0
-6004 -6008 0
-6004 -6009 0
-6004 -6010 0
-6004 -6011 0
-6004 -6012 0
-6004 -6013 0
-6005 -6006 0
-6005 -6007 0
-6005 -6008 0
-6005 -6009 0
-6005 -6010 0
-6005 -6011 0
-6005 -6012 0
-6005 -6013 0
-6006 -6007 0
-6006 -6008 0
-6006 -6009 0
-6006 -6010 0
-6006 -6011 0
-6006 -6012 0
-6006 -6013 0
-6007 -6008 0
-6007 -6009 0
-6007 -6010 0
-6007 -6011 0
-6007 -6012 0
-6007 -6013 0
-6008 -6009 0
-6008 -6010 0
-6008 -6011 0
-6008 -6012 0
-6008 -6013 0
-6009 -6010 0
-6009 -6011 0
-6009 -6012 0
-6009 -6013 0
-6010 -6011 0
-6010 -6012 0
-6010 -6013 0
-6011 -6012 0
-6011 -6013 0
-6012 -6013 0
